18
3765
O         -2.27580        1.09430       -0.52060
O         -2.45290       -0.98760        0.43970
N          2.48110        0.05010       -0.32780
C          0.38060        1.27960        0.14140
C          1.85870        1.08410        0.50360
C         -0.33480       -0.02920       -0.00120
C          1.82160       -1.24840       -0.13170
C          0.31920       -1.19430       -0.10830
C         -1.79770       -0.04850        0.00490
H          0.30880        1.83100       -0.80460
H         -0.09120        1.89220        0.91860
H          2.39120        2.03070        0.35900
H          1.96030        0.82180        1.56460
H          2.16900       -1.70040        0.80520
H          2.13650       -1.91110       -0.94510
H          3.46880       -0.03410       -0.09020
H         -0.21000       -2.13970       -0.18490
H         -3.25650        1.11560       -0.52950
