21
MD17 aspirin inference example
C     -2.595942   -2.269642    0.066255
C     -1.718569   -1.136781   -0.375382
O     -1.568786   -0.790663   -1.540230
O     -1.142709   -0.550219    0.746129
C     -0.235077    0.460871    0.417163
C     -0.698267    1.777324    0.510780
C      0.164026    2.833783    0.224236
C      1.484579    2.575250   -0.141719
C      1.949765    1.258119   -0.215915
C      1.094915    0.182227    0.070449
C      1.590339   -1.218640    0.021824
O      0.977083   -2.225822    0.323594
O      2.864388   -1.301050   -0.408129
H     -3.006067   -2.773570   -0.813588
H     -3.422512   -1.884425    0.668231
H     -2.008791   -2.994227    0.636116
H     -1.726984    1.977713    0.796840
H     -0.193200    3.859031    0.284092
H      2.156660    3.399997   -0.367989
H      2.986228    1.084400   -0.496432
H      3.048921   -2.263677   -0.406327
